p edge 46 96
e 1 2
e 1 5
e 1 11
e 1 12
e 1 13
e 1 18
e 1 20
e 1 35
e 2 8
e 2 9
e 2 11
e 2 16
e 2 24
e 3 6
e 3 13
e 3 16
e 3 26
e 3 32
e 4 5
e 4 7
e 4 12
e 4 17
e 4 22
e 4 29
e 4 36
e 4 38
e 5 12
e 5 17
e 5 20
e 5 29
e 5 30
e 5 35
e 5 36
e 5 46
e 6 7
e 6 15
e 6 32
e 6 37
e 7 11
e 7 17
e 7 36
e 8 9
e 8 24
e 8 39
e 9 24
e 9 25
e 9 30
e 10 14
e 10 16
e 10 21
e 10 22
e 10 28
e 10 31
e 10 43
e 11 18
e 11 40
e 12 17
e 12 20
e 12 29
e 12 35
e 12 36
e 13 19
e 13 23
e 13 34
e 14 16
e 14 21
e 14 22
e 14 28
e 14 31
e 15 21
e 15 31
e 15 37
e 15 45
e 16 22
e 16 24
e 16 28
e 16 44
e 17 35
e 17 38
e 18 27
e 19 23
e 19 34
e 19 41
e 20 35
e 21 31
e 21 45
e 22 28
e 22 42
e 23 29
e 23 33
e 23 34
e 28 43
e 29 33
e 29 36
e 30 46
e 31 45
